results/res_prop_muc/res_Cimatti_mathsat_cores/QF_RDL/fischer6-mutex-1.smt.smt2.res
unsat
( c10
  c108
  c11
  c113
  c12
  c125
  c13
  c131
  c132
  c135
  c138
  c14
  c141
  c144
  c15
  c155
  c164
  c174
  c183
  c195
  c207
  c213
  c214
  c217
  c22
  c220
  c223
  c226
  c237
  c246
  c256
  c265
  c277
  c289
  c295
  c296
  c299
  c30
  c302
  c305
  c308
  c319
  c328
  c338
  c347
  c359
  c371
  c377
  c378
  c38
  c381
  c384
  c387
  c390
  c4
  c401
  c410
  c420
  c429
  c441
  c453
  c459
  c46
  c460
  c463
  c466
  c469
  c472
  c483
  c492
  c5
  c502
  c511
  c523
  c535
  c54
  c541
  c542
  c545
  c548
  c551
  c554
  c564
  c579
  c587
  c595
  c6
  c603
  c611
  c619
  c62
  c65
  c697
  c699
  c7
  c701
  c703
  c705
  c707
  c717
  c721
  c725
  c729
  c733
  c737
  c74
  c740
  c741
  c744
  c745
  c748
  c749
  c752
  c753
  c755
  c761
  c8
  c84
  c9
  c93 )
